# Solution for model F-JSSP-SDST
# Objective value = 5189
B0(14) 1
B1(16) 0
B2(22) 0
B3(19) 0
B4(16) 1
B5(14) 0
B6(18) 1
B7(17) 0
B8(9) 0
B9(15) 0
B10(19) 1
B11(19) 0
B12(16) 1
B13(20) 0
B14(17) 0
B15(11) 1
B16(9) 0
B17(14) 0
B18(16) 1
B19(11) 1
B20(21) 0
B21(19) 0
B22(18) 0
B23(17) 1
B24(11) 0
B25(14) 0
B26(16) 1
B27(20) 0
B28(18) 1
B29(19) 1
B30(11) 0
B31(17) 0
B32(19) 0
B33(15) 1
B34(20) 0
B35(21) 1
B36(17) 0
B37(16) 0
B38(11) 1
B39(18) 0
B40(20) 0
B41(20) 1
B42(20) 0
B43(20) 1
B44(17) 0
B45(16) 0
B46(11) 0
B47(9) 1
B48(2) 1
B49(2) 1
B50(2) 0
B51(2) 1
B52(2) 1
B53(2) 1
B54(2) 1
B55(2) 0
B56(2) 1
B57(2) 1
B58(2) 1
B59(2) 1
B60(2) 1
B61(2) 1
B62(2) 1
B63(2) 1
B64(2) 1
B65(2) 1
B66(2) 1
B67(2) 1
B68(2) 1
B69(2) 1
B70(2) 1
B71(2) 1
B72(2) 1
B73(2) 1
B74(2) 0
B75(2) 1
B76(2) 1
B77(2) 0
B78(2) 1
B79(2) 0
B80(2) 1
B81(2) 1
B82(2) 1
B83(2) 1
B84(2) 0
B85(2) 1
B86(2) 1
B87(2) 1
B88(2) 0
B89(2) 1
B90(2) 1
B91(2) 0
B92(2) 1
B93(2) 1
B94(2) 1
B95(2) 1
B96(2) 1
B97(2) 1
B98(2) 0
B99(2) 0
B100(2) 0
B101(2) 0
B102(2) 0
B103(2) 0
B104(2) 0
B105(2) 0
B106(2) 0
B107(2) 1
B108(2) 0
B109(2) 0
B110(2) 0
B111(2) 1
B112(2) 0
B113(2) 0
B114(2) 0
B115(2) 0
B116(2) 0
B117(2) 0
B118(2) 1
B119(2) 0
B120(2) 0
B121(2) 0
B122(2) 0
B123(2) 1
B124(2) 0
B125(2) 1
B126(2) 1
B127(2) 1
B128(2) 0
B129(2) 0
B130(2) 1
B131(2) 0
B132(2) 0
B133(2) 1
B134(2) 1
B135(2) 1
B136(2) 1
B137(2) 1
B138(2) 1
B139(2) 0
B140(2) 0
B141(2) 0
B142(2) 0
B143(2) 0
B144(2) 1
B145(2) 0
B146(2) 0
B147(2) 0
B148(2) 0
B149(2) 0
B150(2) 1
B151(2) 0
B152(2) 1
B153(2) 0
B154(2) 1
B155(2) 0
B156(2) 0
B157(2) 0
B158(2) 0
B159(2) 0
B160(2) 0
B161(2) 0
B162(2) 1
B163(2) 0
B164(2) 0
B165(2) 0
B166(2) 1
B167(2) 0
B168(2) 0
B169(2) 0
B170(2) 1
B171(2) 0
B172(2) 0
B173(2) 1
B174(2) 0
B175(2) 1
B176(2) 0
B177(2) 0
B178(2) 0
B179(2) 0
B180(2) 0
B181(2) 1
B182(2) 1
B183(2) 1
B184(2) 1
B185(2) 1
B186(2) 1
B187(2) 0
B188(2) 0
B189(2) 0
C190(14) 142
C191(16) 0
C192(22) 0
C193(22) 0
C194(18) 289
C195(16) 0
C196(19) 419
C197(19) 0
C198(11) 0
C199(15) 0
C200(19) 0
C201(20) 0
C202(18) 157
C203(22) 0
C204(18) 0
C205(12) 328
C206(10) 0
C207(14) 0
C208(16) 81
C209(12) 143
C210(22) 0
C211(20) 0
C212(19) 0
C213(19) 288
C214(13) 0
C215(14) 0
C216(16) 0
C217(21) 0
C218(19) 65
C219(20) 246
C220(12) 0
C221(17) 0
C222(19) 0
C223(15) 0
C224(21) 0
C225(23) 166
C226(19) 0
C227(17) 0
C228(13) 231
C229(18) 0
C230(20) 0
C231(20) 0
C232(22) 0
C233(22) 168
C234(20) 0
C235(17) 0
C236(13) 0
C237(11) 303
C238(1) 5189
